
n_res = 8;
rcap = [93, 100, 114, 99, 899, 816, 848, 909];
rtype = [1, 1, 1, 1, 2, 2, 2, 2];
n_tasks = 50;
modes =  [{1, 2, 3, 4, 5, 6}, {7, 8, 9, 10, 11, 12}, {13, 14, 15, 16, 17, 18}, {19, 20, 21, 22, 23, 24}, {25, 26, 27, 28, 29, 30}, {31, 32, 33, 34, 35, 36}, {37, 38, 39, 40, 41, 42}, {43, 44, 45, 46, 47, 48}, {49, 50, 51, 52, 53, 54}, {55, 56, 57, 58, 59, 60}, {61, 62, 63, 64, 65, 66}, {67, 68, 69, 70, 71, 72}, {73, 74, 75, 76, 77, 78}, {79, 80, 81, 82, 83, 84}, {85, 86, 87, 88, 89, 90}, {91, 92, 93, 94, 95, 96}, {97, 98, 99, 100, 101, 102}, {103, 104, 105, 106, 107, 108}, {109, 110, 111, 112, 113, 114}, {115, 116, 117, 118, 119, 120}, {121, 122, 123, 124, 125, 126}, {127, 128, 129, 130, 131, 132}, {133, 134, 135, 136, 137, 138}, {139, 140, 141, 142, 143, 144}, {145, 146, 147, 148, 149, 150}, {151, 152, 153, 154, 155, 156}, {157, 158, 159, 160, 161, 162}, {163, 164, 165, 166, 167, 168}, {169, 170, 171, 172, 173, 174}, {175, 176, 177, 178, 179, 180}, {181, 182, 183, 184, 185, 186}, {187, 188, 189, 190, 191, 192}, {193, 194, 195, 196, 197, 198}, {199, 200, 201, 202, 203, 204}, {205, 206, 207, 208, 209, 210}, {211, 212, 213, 214, 215, 216}, {217, 218, 219, 220, 221, 222}, {223, 224, 225, 226, 227, 228}, {229, 230, 231, 232, 233, 234}, {235, 236, 237, 238, 239, 240}, {241, 242, 243, 244, 245, 246}, {247, 248, 249, 250, 251, 252}, {253, 254, 255, 256, 257, 258}, {259, 260, 261, 262, 263, 264}, {265, 266, 267, 268, 269, 270}, {271, 272, 273, 274, 275, 276}, {277, 278, 279, 280, 281, 282}, {283, 284, 285, 286, 287, 288}, {289, 290, 291, 292, 293, 294}, {295, 296, 297, 298, 299, 300}];
succ =  [{48, 35, 31, 30, 27, 26, 25, 22, 19, 13, 7}, {50, 49, 48, 45, 43, 31, 30, 26, 24, 19, 7}, {49, 48, 47, 45, 35, 31, 30, 29, 28, 19, 13}, {49, 42, 34, 32, 30, 17, 14}, {49, 47, 46, 43, 42, 38, 34, 31, 29, 28, 24}, {48, 46, 45, 42, 29, 19, 17}, {47, 46, 44, 34, 29, 28, 23, 20}, {50, 46, 45, 42, 38, 34, 29, 28}, {48, 45, 43, 42, 41, 39, 38, 37, 34, 29}, {45, 44, 39, 33, 20}, {45, 36, 17}, {45, 44, 42, 41, 38, 37, 36, 34}, {46, 43, 42, 39, 38, 34, 33}, {47, 45, 43, 38, 37, 26}, {46, 42, 41, 39, 33, 29}, {47, 46, 44, 39, 38, 36, 33}, {43, 41, 40, 38, 28}, {45, 43, 40, 39, 37, 36}, {44, 40, 39, 38, 33}, {42, 41, 40, 38, 36}, {45, 43, 42, 38, 36}, {50, 41, 39, 38}, {39, 38, 33}, {39, 36, 33}, {40, 38, 33}, {44, 41, 36}, {42, 38, 36}, {39, 33}, {40, 36}, {44, 37}, {41, 36}, {39, 36}, {37}, {40}, {36}, {}, {}, {}, {}, {}, {}, {}, {}, {}, {}, {}, {}, {}, {}, {}];
n_opt = 300;
dur = [3, 11, 16, 18, 20, 27, 1, 8, 9, 16, 27, 28, 1, 10, 18, 23, 27, 28, 2, 21, 22, 24, 25, 29, 13, 18, 20, 25, 29, 30, 2, 12, 13, 20, 29, 30, 9, 12, 15, 16, 19, 23, 1, 9, 12, 22, 24, 25, 3, 22, 24, 25, 26, 30, 1, 5, 6, 11, 14, 17, 16, 18, 22, 26, 27, 28, 14, 18, 22, 23, 28, 30, 9, 11, 24, 26, 27, 29, 9, 10, 12, 13, 16, 21, 2, 13, 15, 16, 23, 30, 2, 5, 6, 12, 19, 20, 4, 10, 11, 20, 26, 28, 7, 8, 10, 13, 15, 21, 5, 8, 12, 20, 21, 24, 5, 12, 13, 17, 23, 25, 2, 7, 8, 9, 14, 25, 5, 7, 9, 18, 21, 29, 5, 6, 10, 19, 22, 29, 5, 8, 16, 18, 22, 26, 2, 3, 10, 24, 25, 27, 5, 11, 14, 22, 24, 27, 1, 14, 19, 22, 25, 26, 4, 5, 12, 16, 20, 25, 2, 4, 7, 14, 20, 27, 1, 2, 4, 21, 23, 29, 4, 8, 12, 14, 18, 21, 7, 12, 14, 18, 21, 30, 6, 8, 9, 10, 16, 23, 1, 3, 4, 14, 15, 16, 4, 11, 15, 23, 26, 27, 2, 3, 7, 20, 27, 30, 3, 8, 19, 24, 25, 30, 13, 15, 18, 20, 25, 26, 2, 5, 7, 15, 21, 30, 1, 17, 21, 24, 25, 28, 2, 3, 5, 9, 14, 24, 3, 6, 8, 11, 17, 29, 14, 17, 18, 22, 23, 27, 1, 2, 17, 24, 25, 26, 6, 8, 9, 12, 14, 15, 1, 2, 7, 18, 25, 26, 6, 11, 19, 20, 23, 28, 1, 3, 5, 6, 28, 29, 2, 8, 15, 16, 24, 30, 7, 21, 22, 23, 24, 30];
rreq = [|10, 9, 8, 7, 6, 6, 22, 22, 22, 22, 22, 22, 25, 25, 19, 16, 10, 4, 21, 20, 19, 18, 18, 17, 23, 20, 19, 16, 14, 10, 23, 23, 23, 22, 22, 22, 22, 22, 19, 19, 16, 14, 16, 16, 15, 15, 13, 13, 13, 13, 13, 13, 12, 12, 19, 19, 18, 17, 17, 16, 9, 7, 7, 6, 4, 3, 14, 14, 14, 14, 14, 14, 23, 22, 20, 19, 17, 16, 18, 18, 18, 18, 18, 18, 10, 7, 7, 5, 4, 4, 8, 7, 6, 6, 5, 4, 26, 22, 20, 18, 14, 10, 21, 17, 12, 11, 5, 1, 28, 25, 25, 24, 20, 19, 28, 27, 26, 25, 25, 24, 21, 16, 16, 14, 9, 9, 29, 29, 29, 28, 28, 28, 20, 18, 14, 11, 7, 7, 13, 9, 8, 6, 3, 2, 17, 15, 15, 12, 12, 11, 21, 21, 19, 17, 16, 16, 6, 5, 5, 4, 4, 3, 24, 24, 22, 19, 17, 15, 18, 18, 18, 18, 18, 18, 17, 15, 14, 11, 11, 9, 9, 9, 9, 8, 7, 7, 20, 18, 17, 15, 12, 8, 26, 23, 22, 18, 15, 13, 9, 7, 7, 6, 4, 3, 11, 11, 11, 10, 10, 9, 30, 26, 24, 22, 17, 15, 11, 11, 11, 11, 11, 11, 14, 13, 10, 8, 6, 3, 22, 20, 17, 11, 10, 6, 29, 28, 28, 28, 27, 27, 18, 18, 18, 18, 18, 18, 9, 7, 6, 6, 5, 4, 20, 20, 20, 20, 20, 20, 29, 29, 29, 29, 29, 29, 27, 22, 16, 13, 8, 4, 18, 15, 13, 10, 10, 8, 28, 25, 25, 22, 21, 21, 25, 24, 19, 12, 12, 4, 6, 6, 6, 6, 6, 6, 11, 11, 11, 11, 11, 11
 |26, 22, 21, 17, 15, 14, 29, 22, 20, 17, 12, 8, 21, 21, 17, 10, 6, 4, 16, 12, 10, 10, 7, 4, 14, 13, 12, 10, 9, 7, 22, 18, 16, 14, 13, 8, 25, 22, 19, 14, 13, 11, 21, 20, 19, 19, 18, 17, 18, 15, 14, 11, 10, 9, 25, 24, 23, 23, 22, 22, 9, 9, 8, 6, 4, 4, 26, 24, 24, 24, 22, 22, 24, 23, 23, 22, 22, 21, 9, 8, 8, 8, 8, 8, 9, 9, 9, 8, 8, 8, 17, 14, 12, 12, 8, 8, 28, 27, 23, 20, 17, 15, 25, 24, 21, 19, 13, 11, 23, 22, 20, 16, 15, 12, 9, 7, 6, 6, 4, 2, 17, 16, 15, 15, 14, 14, 28, 26, 24, 20, 16, 16, 22, 22, 21, 19, 18, 18, 27, 27, 23, 21, 16, 15, 28, 27, 27, 27, 27, 27, 17, 16, 16, 14, 14, 13, 27, 26, 25, 25, 24, 24, 24, 23, 20, 14, 12, 6, 25, 20, 16, 13, 9, 8, 21, 20, 20, 20, 19, 19, 8, 8, 8, 8, 8, 8, 9, 9, 9, 8, 8, 8, 7, 6, 5, 4, 3, 2, 25, 25, 25, 24, 23, 23, 29, 26, 24, 20, 20, 16, 11, 8, 8, 7, 5, 2, 26, 23, 23, 21, 19, 18, 28, 23, 18, 11, 7, 7, 26, 25, 25, 23, 22, 22, 25, 22, 21, 17, 15, 14, 11, 10, 8, 6, 5, 4, 22, 21, 16, 15, 10, 7, 21, 20, 18, 16, 16, 14, 19, 19, 19, 19, 18, 18, 26, 21, 19, 16, 11, 5, 28, 24, 23, 20, 17, 15, 25, 24, 23, 21, 21, 20, 18, 16, 14, 14, 12, 11, 25, 25, 23, 23, 22, 21, 14, 14, 13, 12, 12, 11
 |29, 20, 18, 11, 9, 1, 21, 17, 16, 14, 13, 12, 26, 23, 17, 12, 12, 6, 29, 28, 27, 27, 26, 26, 24, 24, 24, 23, 23, 23, 28, 28, 28, 28, 28, 28, 26, 23, 19, 16, 13, 9, 26, 25, 25, 24, 24, 24, 25, 25, 24, 23, 22, 22, 29, 29, 27, 26, 26, 25, 22, 16, 13, 11, 8, 6, 22, 22, 21, 18, 17, 16, 1, 1, 1, 1, 1, 1, 28, 27, 27, 26, 26, 26, 24, 21, 18, 17, 12, 10, 27, 27, 22, 21, 16, 12, 27, 22, 19, 16, 14, 11, 15, 14, 13, 12, 11, 11, 9, 8, 7, 7, 5, 4, 25, 23, 22, 20, 18, 18, 22, 22, 20, 19, 15, 14, 4, 3, 3, 2, 2, 1, 17, 15, 13, 9, 4, 4, 23, 21, 18, 18, 14, 14, 9, 7, 6, 5, 4, 3, 27, 23, 21, 16, 13, 9, 17, 15, 12, 8, 6, 5, 19, 16, 14, 10, 10, 7, 19, 16, 14, 10, 8, 5, 15, 15, 15, 14, 13, 13, 23, 20, 14, 14, 10, 6, 27, 25, 25, 23, 22, 21, 8, 8, 8, 8, 8, 8, 13, 12, 11, 7, 5, 3, 22, 20, 18, 17, 15, 14, 30, 20, 18, 16, 7, 6, 4, 4, 3, 3, 2, 1, 26, 26, 26, 26, 26, 26, 15, 15, 15, 14, 14, 14, 7, 6, 6, 5, 5, 4, 16, 15, 13, 12, 8, 7, 20, 15, 15, 11, 7, 6, 17, 16, 12, 12, 9, 5, 10, 9, 8, 7, 5, 5, 22, 17, 16, 11, 7, 4, 28, 27, 27, 26, 25, 25, 21, 17, 11, 11, 6, 1, 22, 20, 20, 19, 18, 18, 11, 10, 10, 9, 9, 9, 22, 20, 19, 16, 16, 14
 |25, 23, 20, 18, 14, 13, 18, 14, 11, 8, 6, 2, 18, 16, 15, 15, 14, 13, 15, 14, 13, 11, 10, 10, 11, 11, 9, 7, 4, 3, 28, 23, 18, 13, 11, 6, 21, 17, 12, 9, 5, 5, 30, 29, 29, 28, 28, 28, 30, 29, 29, 28, 28, 27, 27, 23, 19, 15, 9, 4, 25, 22, 18, 18, 14, 11, 16, 15, 12, 10, 9, 6, 20, 18, 17, 15, 12, 12, 14, 12, 10, 8, 5, 4, 21, 19, 18, 13, 9, 8, 12, 11, 9, 9, 7, 6, 24, 22, 19, 15, 14, 13, 4, 4, 4, 4, 4, 4, 19, 17, 12, 9, 5, 4, 26, 26, 25, 25, 25, 24, 21, 21, 21, 21, 21, 21, 30, 29, 29, 29, 28, 28, 21, 19, 19, 17, 17, 15, 24, 22, 21, 20, 20, 19, 21, 18, 17, 13, 11, 8, 26, 23, 19, 19, 16, 14, 28, 24, 20, 18, 15, 13, 25, 24, 20, 18, 14, 12, 23, 20, 18, 16, 10, 10, 26, 22, 19, 18, 16, 12, 25, 25, 25, 24, 23, 23, 19, 17, 16, 15, 13, 12, 22, 20, 19, 18, 17, 17, 11, 8, 7, 4, 4, 1, 28, 27, 24, 20, 15, 14, 12, 9, 7, 6, 4, 2, 15, 14, 12, 8, 7, 6, 22, 21, 18, 14, 9, 4, 17, 16, 12, 10, 7, 6, 13, 12, 9, 7, 5, 4, 6, 5, 5, 5, 4, 4, 5, 4, 4, 4, 4, 4, 9, 8, 7, 7, 7, 6, 21, 21, 20, 20, 20, 19, 9, 8, 8, 7, 7, 7, 23, 22, 19, 16, 14, 13, 28, 25, 20, 19, 15, 14, 26, 25, 24, 23, 22, 22, 27, 22, 21, 17, 15, 10, 14, 14, 14, 14, 13, 13
 |29, 27, 25, 21, 19, 17, 22, 20, 19, 17, 15, 13, 23, 18, 17, 16, 13, 12, 24, 24, 18, 13, 9, 5, 29, 27, 26, 24, 21, 19, 18, 16, 14, 13, 12, 11, 21, 20, 19, 17, 16, 13, 18, 16, 14, 14, 13, 12, 10, 9, 7, 7, 5, 3, 23, 20, 14, 12, 6, 3, 30, 23, 17, 13, 11, 3, 10, 10, 10, 10, 10, 10, 15, 15, 15, 15, 14, 14, 12, 11, 11, 10, 10, 10, 13, 13, 13, 13, 13, 13, 22, 19, 16, 13, 8, 7, 7, 6, 5, 3, 2, 1, 25, 23, 19, 14, 8, 8, 23, 23, 23, 22, 21, 21, 28, 28, 27, 27, 26, 26, 21, 18, 17, 16, 14, 12, 26, 25, 24, 24, 23, 23, 14, 12, 8, 6, 5, 4, 29, 28, 27, 26, 25, 25, 23, 20, 18, 15, 14, 12, 15, 15, 15, 15, 15, 15, 27, 24, 23, 23, 20, 20, 10, 10, 9, 7, 7, 6, 26, 21, 21, 17, 16, 13, 16, 15, 15, 13, 11, 11, 27, 21, 19, 13, 11, 8, 17, 15, 15, 15, 13, 13, 13, 12, 12, 11, 9, 9, 20, 20, 20, 20, 20, 20, 17, 13, 10, 10, 6, 3, 4, 4, 4, 4, 4, 4, 29, 29, 29, 29, 29, 29, 20, 18, 18, 16, 16, 15, 21, 21, 20, 19, 19, 18, 10, 10, 9, 9, 8, 7, 20, 17, 11, 10, 6, 2, 18, 18, 15, 14, 10, 8, 25, 21, 18, 15, 14, 11, 18, 15, 14, 14, 12, 12, 17, 15, 14, 10, 8, 6, 24, 23, 19, 18, 15, 13, 26, 23, 22, 20, 20, 17, 26, 18, 17, 12, 5, 5, 18, 17, 15, 15, 14, 13, 22, 21, 21, 20, 20, 19
 |14, 14, 10, 7, 4, 4, 26, 20, 17, 12, 11, 6, 6, 6, 6, 6, 5, 5, 9, 6, 6, 5, 3, 3, 24, 20, 15, 13, 8, 4, 20, 17, 14, 14, 11, 10, 17, 16, 16, 15, 15, 14, 25, 24, 22, 21, 20, 20, 18, 17, 17, 17, 16, 15, 26, 26, 26, 26, 26, 26, 9, 8, 7, 6, 5, 5, 22, 22, 22, 21, 21, 21, 13, 13, 13, 13, 13, 13, 16, 15, 15, 15, 14, 14, 29, 25, 19, 19, 14, 12, 24, 23, 20, 18, 12, 11, 23, 23, 19, 16, 15, 13, 18, 16, 15, 13, 13, 11, 24, 24, 24, 24, 24, 24, 16, 14, 12, 10, 10, 9, 24, 22, 17, 16, 14, 10, 9, 9, 7, 5, 5, 2, 8, 7, 7, 5, 4, 3, 23, 16, 13, 10, 10, 6, 6, 6, 6, 5, 5, 5, 25, 24, 22, 19, 16, 13, 28, 28, 28, 28, 27, 27, 20, 16, 14, 13, 12, 10, 13, 12, 12, 11, 11, 11, 14, 14, 11, 9, 7, 7, 18, 18, 13, 10, 8, 4, 29, 22, 19, 17, 15, 10, 24, 24, 23, 22, 22, 21, 7, 7, 7, 7, 7, 7, 22, 21, 18, 14, 11, 7, 9, 7, 5, 5, 3, 3, 20, 18, 17, 15, 14, 12, 25, 22, 22, 21, 20, 18, 23, 22, 22, 22, 21, 21, 8, 7, 5, 4, 4, 3, 16, 13, 13, 12, 11, 10, 30, 25, 17, 12, 7, 5, 23, 22, 19, 17, 16, 14, 15, 13, 11, 8, 8, 4, 19, 16, 10, 10, 7, 2, 23, 20, 16, 14, 14, 12, 6, 5, 4, 3, 3, 1, 20, 17, 17, 13, 12, 8, 5, 5, 4, 4, 3, 3, 29, 20, 17, 12, 11, 5
 |24, 22, 20, 13, 12, 7, 14, 13, 13, 10, 10, 9, 24, 21, 19, 15, 11, 7, 25, 22, 20, 12, 7, 5, 26, 25, 17, 15, 10, 6, 19, 19, 18, 16, 14, 13, 26, 26, 21, 16, 16, 11, 26, 26, 26, 26, 26, 26, 12, 11, 9, 8, 7, 7, 19, 17, 17, 15, 14, 14, 4, 4, 4, 4, 4, 4, 21, 21, 20, 19, 18, 17, 12, 12, 12, 12, 12, 12, 20, 20, 20, 20, 20, 20, 15, 12, 9, 9, 6, 1, 18, 18, 12, 12, 6, 6, 14, 12, 12, 11, 10, 10, 26, 23, 23, 21, 21, 20, 29, 22, 20, 16, 13, 7, 25, 24, 22, 20, 18, 18, 14, 14, 14, 14, 14, 14, 20, 18, 16, 16, 13, 12, 20, 18, 16, 13, 12, 9, 16, 16, 14, 13, 12, 12, 25, 24, 21, 20, 20, 17, 26, 25, 25, 23, 22, 22, 10, 10, 10, 9, 9, 9, 22, 21, 21, 21, 21, 21, 21, 18, 18, 16, 15, 15, 22, 20, 17, 13, 11, 7, 21, 21, 21, 21, 21, 21, 21, 16, 12, 9, 6, 5, 28, 25, 20, 16, 16, 11, 28, 28, 25, 23, 23, 21, 4, 3, 3, 2, 1, 1, 23, 21, 20, 19, 18, 17, 16, 15, 12, 9, 7, 6, 12, 9, 7, 6, 4, 2, 13, 11, 11, 8, 5, 2, 23, 23, 19, 19, 15, 15, 9, 8, 7, 7, 6, 5, 22, 21, 19, 17, 15, 14, 5, 5, 5, 4, 4, 4, 20, 15, 15, 10, 9, 3, 23, 23, 23, 23, 23, 23, 16, 14, 13, 11, 7, 7, 16, 13, 12, 7, 4, 3, 21, 20, 13, 8, 8, 1, 29, 20, 18, 10, 5, 4, 11, 10, 8, 6, 4, 4
 |28, 27, 27, 26, 26, 25, 14, 14, 12, 11, 9, 8, 15, 14, 13, 11, 10, 9, 22, 21, 21, 20, 18, 18, 26, 21, 16, 13, 11, 8, 22, 19, 17, 13, 6, 5, 17, 17, 16, 15, 14, 12, 8, 6, 6, 4, 4, 2, 21, 20, 20, 17, 17, 15, 24, 22, 19, 17, 17, 14, 24, 22, 21, 21, 17, 16, 7, 6, 6, 6, 4, 4, 27, 27, 26, 24, 24, 23, 12, 12, 12, 12, 11, 11, 20, 19, 18, 17, 16, 16, 23, 21, 18, 17, 16, 14, 30, 28, 27, 26, 25, 25, 4, 4, 4, 4, 4, 4, 19, 19, 19, 19, 19, 19, 20, 19, 17, 16, 16, 15, 26, 24, 22, 15, 13, 9, 16, 15, 12, 11, 9, 7, 23, 22, 22, 21, 21, 21, 23, 21, 17, 10, 8, 6, 18, 18, 18, 17, 17, 16, 16, 16, 16, 16, 16, 16, 28, 27, 25, 22, 20, 20, 27, 27, 27, 27, 27, 27, 22, 21, 18, 12, 11, 6, 19, 17, 15, 11, 11, 8, 19, 18, 17, 14, 12, 11, 17, 16, 15, 13, 13, 12, 6, 5, 5, 4, 3, 2, 27, 21, 18, 15, 10, 9, 20, 16, 16, 11, 11, 8, 22, 20, 20, 20, 19, 18, 8, 8, 8, 7, 7, 7, 29, 28, 26, 26, 24, 24, 25, 23, 21, 16, 16, 14, 15, 12, 11, 8, 7, 6, 21, 18, 14, 12, 8, 4, 21, 19, 19, 18, 16, 13, 23, 22, 22, 22, 21, 20, 14, 14, 9, 7, 6, 3, 13, 13, 13, 13, 12, 12, 23, 22, 20, 17, 15, 14, 29, 29, 29, 28, 27, 27, 21, 20, 19, 18, 18, 17, 22, 20, 20, 20, 18, 18, 20, 18, 16, 16, 12, 10|];